sat

(objectives
 ((bvadd PriceProv5 (bvadd PriceProv4 (bvadd PriceProv3 (bvadd PriceProv1 PriceProv2)))) (_ bv1079 32))
)
;; statistics
(
 :cnf-variables 933
 :cnf-literals 3445
 :cnf-clauses 1505
 :sat-checks 12
 :sat-restarts 21
 :sat-decisions 19924
 :sat-random-decisions 8
 :sat-propagations 20418234
 :sat-theory-propagations 0
 :sat-watched-clauses-visited 22799005
 :sat-binary-watched-clauses-visited 13611481
 :sat-conflicts 3769
 :sat-theory-conflicts 0
 :theory-necessary-interface-equalities 0
 :theory-extra-interface-equalities 0
 :euf-total-calls 21649
 :euf-complete-calls 12
 :euf-conflicts 0
 :euf-implications 0
 :euf-explanations 0
 :euf-egraph-nodes-created 10676
 :euf-egraph-nodes-deleted 8604
 :euf-num-asserted-equalities 202232
 :euf-num-asserted-inequalities 122008
 :euf-num-merges 371669
 :euf-num-merges-undone 371669
 :euf-num-atoms-retold 1824
 :la-total-calls 21649
 :la-complete-calls 12
 :la-conflicts 0
 :la-implications 0
 :la-explanations 0
 :la-num-equalities-split 0
 :la-num-tableau-rows 0
 :la-num-tableau-variables 0
 :bv-total-calls 21649
 :bv-complete-calls 12
 :bv-conflicts 0
 :bv-implications 0
 :bv-explanations 0
 :fp-total-calls 21649
 :fp-complete-calls 12
 :fp-conflicts 0
 :fp-implications 0
 :fp-explanations 0
 :arr-total-calls 21649
 :arr-complete-calls 12
 :arr-conflicts 0
 :arr-implications 0
 :arr-explanations 0
 :arr-write-lemmas-added 0
 :arr-row-lemmas-added 0
 :arr-ext-lemmas-added 0
 :arr-const-lemmas-added 0
 :na-total-calls 21649
 :na-complete-calls 12
 :na-conflicts 0
 :na-implications 0
 :na-explanations 0
 :na-num_nonlinear_multiplications 0
 :na-num_axiom_checks 0
 :na-num_zero_lemmas 0
 :na-num_sign_lemmas 0
 :na-num_neutral_lemmas 0
 :na-num_proportionality_lemmas 0
 :na-num_bound_lemmas 0
 :na-num_tangent_lemmas 0
 :na-num_monotonicity_lemmas 0
 :na-num_sat_checks 0
 :na-axiom_check_time 0.000
 :na-sat_check_time 0.000
 :time-seconds 2.232
 :memory-mb 34.003
)
